CMD:
./solvers/bin/cadical --plain --no-reduce -t 1600 ./data/cnfs//6s339rb19/6s339rb19.75.cnf

c --- [ banner ] -------------------------------------------------------------
c 
c CaDiCaL SAT Solver
c Copyright (c) 2016-2024
c A. Biere, M. Fleury, N. Froleyks, K. Fazekas, F. Pollitt, T. Faller
c JKU Linz, University of Freiburg, TU Wien
c 
c Version 2.1.3 5296d3d2a9bf48c154ab2acb5e44625776d821bf
c g++ (Gentoo 12.3.1_p20230526 p2) 12.3.1 20230526 -Wall -Wextra -O3 -DNDEBUG
c Sat Aug 9 07:26:21 PDT 2025 Linux cedar2.int.cedar.computecanada.ca 5.14.0-362.24.2.el9_3.x86_64 x86_64
c 
c --- [ limit ] --------------------------------------------------------------
c 
c setting time limit to 1600 seconds real time (due to '-t 1600')
c 
c --- [ parsing input ] ------------------------------------------------------
c 
c reading DIMACS file from './data/cnfs//6s339rb19/6s339rb19.75.cnf'
c opening file to read './data/cnfs//6s339rb19/6s339rb19.75.cnf'
c found 'p cnf 760764 2148822' header
c parsed 2148822 clauses in 0.31 seconds process time
c 
c --- [ options ] ------------------------------------------------------------
c 
c   --compact=false                (different from default 'true')
c   --decompose=false              (different from default 'true')
c   --deduplicate=false            (different from default 'true')
c   --elim=false                   (different from default 'true')
c   --probe=false                  (different from default 'true')
c   --reduce=false                 (different from default 'true')
c   --subsume=false                (different from default 'true')
c   --ternary=false                (different from default 'true')
c   --transred=false               (different from default 'true')
c   --vivify=false                 (different from default 'true')
c 
c --- [ solving ] ------------------------------------------------------------
c 
c time measured in process time since initialization
c 
c  seconds   reductions  redundant   irredundant
c          MB    restarts       trail        variables
c           level   conflicts       glue           remaining
c 
c *  0.31 288  0 0   0    0    0  0% 0 1608793 481783 63%
c {  0.39 293  0 0   0    0    0  0% 0 1608793 481783 63%
c i  0.39 293 119 0   0    1    0 40% 0 1608793 481776 63%
c i  0.39 293 156 0   0   16   14 40% 2 1608793 481770 63%
c i  0.42 293 172 0  11  149  127 40% 3 1608793 481763 63%
c i  0.42 293 157 0  11  187  160 40% 3 1608793 481756 63%
c i  0.42 293 156 0  11  189  161 40% 3 1608793 481750 63%
c i  0.43 293 144 0  13  254  218 41% 3 1608793 481740 63%
c i  0.44 293 140 0  17  265  228 41% 3 1608793 481734 63%
c i  0.44 293 140 0  18  271  231 41% 3 1608793 481727 63%
c i  0.44 293 137 0  20  277  236 41% 3 1608793 481724 63%
c i  0.44 293 137 0  20  278  236 41% 3 1608793 481388 63%
c i  0.44 293 135 0  21  281  238 40% 3 1608793 481383 63%
c i  0.45 293 134 0  22  286  241 40% 3 1608793 481302 63%
c i  0.45 293 133 0  22  288  242 40% 3 1608793 481295 63%
c i  0.45 293 129 0  22  299  252 40% 3 1608793 481288 63%
c i  0.45 293 128 0  22  302  254 40% 3 1608793 481281 63%
c i  0.45 294 123 0  22  319  269 40% 3 1608793 481274 63%
c i  0.46 294 99 0  28  437  375 40% 3 1608793 481269 63%
c i  0.46 294 99 0  28  455  390 40% 3 1608793 481260 63%
c 
c  seconds   reductions  redundant   irredundant
c          MB    restarts       trail        variables
c           level   conflicts       glue           remaining
c 
c i  0.46 294 99 0  28  456  390 40% 3 1608793 481253 63%
c i  0.46 294 98 0  28  467  399 40% 3 1608793 481246 63%
c i  0.46 294 98 0  28  478  407 40% 3 1608793 481233 63%
c i  0.46 294 95 0  28  560  478 40% 3 1608793 481225 63%
c i  0.46 294 94 0  28  575  490 40% 3 1608793 481220 63%
c i  0.46 294 94 0  28  582  496 40% 3 1608793 481213 63%
c i  0.46 294 94 0  28  589  501 40% 3 1608793 481206 63%
c i  0.46 294 92 0  28  620  530 40% 3 1608793 481199 63%
c i  0.46 294 91 0  28  641  550 40% 3 1608793 481191 63%
c i  0.46 294 90 0  28  652  559 40% 3 1608793 481185 63%
c i  0.47 294 86 0  28  700  603 40% 3 1608793 481178 63%
c i  0.47 294 81 0  32  773  668 40% 3 1608793 481168 63%
c i  0.47 294 80 0  32  787  680 40% 3 1608793 481159 63%
c i  0.47 294 79 0  34  794  686 40% 3 1608793 481131 63%
c i  0.47 294 79 0  34  797  688 40% 3 1608793 481124 63%
c i  0.49 294 73 0  47  953  817 39% 3 1608793 481117 63%
c i  0.49 294 73 0  48  954  817 39% 3 1608793 481109 63%
c i  0.49 294 73 0  49  957  818 39% 3 1608793 481103 63%
c i  0.49 294 72 0  50  964  824 39% 3 1608793 481064 63%
c i  0.49 294 71 0  51  979  838 39% 3 1608793 481056 63%
c 
c  seconds   reductions  redundant   irredundant
c          MB    restarts       trail        variables
c           level   conflicts       glue           remaining
c 
c }  0.49 294 71 0  53 1000  856 39% 3 1608793 481056 63%
c [  0.49 294  0 0  53 1000  856  0% 0 1608793 481056 63%
c O  0.55 294 8002 0  53 1005  860 54% 4 1608793 481056 63%
c i  0.56 294 1470 0  53 1024  878 43% 7 1608793 481048 63%
... skipped 79 lines ...
c [ 143.67 365 16 0 37288 511014 422568 38% 10 1201074 480302 63%
c W 147.80 365 16 0 37288 528066 434804 38% 11 1201074 480302 63%
c I 154.33 367 15 0 37301 561069 457018 38% 10 1201074 480302 63%
c B 161.58 367 14 0 37317 595071 479856 38% 10 1201074 480302 63%
c W 169.98 373 14 0 37325 630072 501398 38% 10 1201074 480302 63%
c O 178.70 373 13 0 37341 666074 524306 38% 10 1201074 480302 63%
c i 178.87 373 13 0 37341 666426 524543 38% 10 1201074 480159 63%
c B 188.02 376 13 0 37350 703076 548394 38% 10 1201074 480159 63%
c W 199.00 406 13 0 37352 741077 571820 38% 10 1200640 480159 63%
c I 209.21 406 12 0 37352 780080 596498 38% 10 1200640 480159 63%
c B 220.66 406 12 0 37361 820081 621198 38% 10 1200640 480159 63%
c W 233.62 406 12 0 37381 861083 645725 38% 9 1200640 480159 63%
c 
c  seconds    reductions       redundant    irredundant
c           MB     restarts            trail        variables
c            level      conflicts          glue           remaining
c 
c O 246.97 406 11 0 37392 903086 670166 38% 9 1200640 480159 63%
c i 252.11 406 11 0 37398 918732 678105 38% 9 1200640 479514 63%
c B 261.98 408 11 0 37412 946089 694828 38% 9 1200640 479514 63%
c W 276.80 407 11 0 37415 990093 579816 38% 9 1198400 479514 63%
c i 282.16 407 11 0 37418 1006859 587676 38% 9 1198400 478945 63%
c ] 287.23 407 10 0 37427 1023015 596433 38% 9 1198400 478945 63%
c { 287.23 407 15 0 37427 1023015 596433 38% 10 1198400 478945 63%
c i 288.43 407 15 0 37427 1026965 598178 38% 10 1198400 478376 63%
c i 290.88 407 14 0 37430 1034866 601969 38% 10 1198400 477883 63%
c # 291.01 407 14 0 37430 1035095 602100 38% 10 1198400 477883 63%
c i 292.12 407 14 0 37430 1038641 603901 38% 9 1198400 477314 63%
c i 292.37 407 14 0 37430 1039391 604201 38% 9 1198400 476901 63%
c i 292.76 407 14 0 37430 1040833 604800 38% 9 1198400 475410 62%
c i 292.77 407 14 0 37430 1040841 604804 38% 9 1198400 474897 62%
c i 292.80 407 14 0 37430 1040912 604824 38% 9 1198400 473891 62%
c i 292.82 407 14 0 37430 1040996 604836 38% 9 1198400 473542 62%
c i 292.82 407 14 0 37430 1040999 604837 38% 9 1198400 473306 62%
c i 292.83 407 14 0 37430 1041024 604847 38% 9 1198400 472805 62%
c i 292.83 407 14 0 37430 1041036 604854 38% 9 1198400 472801 62%
c i 292.83 407 14 0 37430 1041049 604855 38% 9 1198400 472797 62%
c 
c  seconds    reductions        redundant    irredundant
c           MB     restarts             trail        variables
c            level       conflicts          glue           remaining
c 
c i 292.84 407 14 0 37430 1041053 604857 38% 9 1198400 472372 62%
c i 292.84 407 14 0 37430 1041056 604859 38% 9 1198400 471430 62%
c } 292.84 407 14 0 37430 1041058 604859 38% 9 1198400 471369 62%
c 0 292.84 407 14 0 37430 1041058 604859 38% 9 1198400 471369 62%
c 
c --- [ result ] -------------------------------------------------------------
c 
s UNSATISFIABLE
c 
c --- [ run-time profiling ] -------------------------------------------------
c 
c process time taken by individual solving procedures
c (percentage relative to process time for solving)
c 
c       292.53  100.00% search
c       162.34   55.50% stable
c       125.54   42.91% unstable
c         4.57    1.56% walk
c         0.31    0.11% parse
c         0.08    0.03% lucky
c         0.00    0.00% simplify
c   =================================
c       292.53   99.89% solve
c 
c last line shows process time for solving
c (percentage relative to total process time)
c 
c --- [ statistics ] ---------------------------------------------------------
c 
c chronological:            168537        16.19 %  of conflicts
c conflicts:               1041058      3558.86    per second
c decisions:               1747547      5974.00    per second
c fixed:                    284677        37.42 %  of all variables
c learned:                 1023413        98.31 %  per conflict
c learned_lits:           27591458       100.00 %  learned literals
c minimized:                     0         0.00 %  learned literals
c shrunken:                9269973        33.60 %  learned literals
c minishrunken:            2843886        10.31 %  learned literals
c otfs:                       3506         0.34 %  of conflict
c propagations:         2368127884         8.10 M  per second
c rephased:                     45     23134.62    interval
c restarts:                  37430        27.81    interval
c stabilizing:                   5        65.50 %  of conflicts
c subsumed:                 276815        10.52 %  of all clauses
c strengthened:               3409         0.13 %  of all clauses
c walked:                       14     74361.29    interval
c 
c seconds are measured in process time for solving
c 
c --- [ resources ] ----------------------------------------------------------
c 
c total process time since initialization:       292.84    seconds
c total real time since initialization:          293.74    seconds
c maximum resident set size of process:          494.93    MB
c 
c --- [ shutting down ] ------------------------------------------------------
c 
c exit 20
